sat
(:max-memory         17.95
 :memory             17.95
 :nlsat-propagations 2
 :nlsat-stages       4
 :num-allocs         18339
 :rlimit-count       854
 :time               0.00
 :total-time         0.01)
